
  22   10
  10   10   10   10   10   10   10   10   10   10

   0   0   0   0   0   0   0   0   0   0   0   7 2 5 6 7 8 12 13 
   9   0   0   0   0   0   0  10   0   0   0   3 17 4 3 
   6   0   0   0   0   0  10   0   0   0   0   4 21 16 15 9 
   4   0   0   0   0   0  10   0   0   0   0   5 19 18 16 15 14 
   9   0  10   0   0   0   0   0   0   0   0   5 19 18 17 15 14 
   7   0  10   0   0   0   0   0   0   0   0   4 17 16 15 11 
   7   0   0   0   0  10   0   0   0   0   0   4 17 16 15 11 
   8   0   0   0   0  10   0   0   0   0   0   3 18 15 10 
   5   0   0   0   0   0   0  10   0   0   0   2 20 10 
   7   0   0   0   0   0  10   0   0   0   0   1 11 
   7   0   0   0   0   0   0   0   0   0  10   1 14 
   9   0   0  10   0   0   0   0   0   0   0   1 15 
   8   0   0  10   0   0   0   0   0   0   0   1 15 
   7  10   0   0   0   0   0   0   0   0   0   1 22
   7  10   0   0   0   0   0   0   0   0   0   1 22
   6   0  10   0   0   0   0   0   0   0   0   1 22
   5   0   0   0   0   0   0   0   0  10   0   1 22
   8   0  10   0   0   0   0   0   0   0   0   1 22
   3   0   0  10   0   0   0   0   0   0   0   1 22
   3   0   0   0  10   0   0   0   0   0   0   1 22
   7   0   0   0   0   0   0   0  10   0   0   1 22
   0   0   0   0   0   0   0   0   0   0   0   0 
